c n orig vars 122
p cnf 124 432
1 2 -123 0
3 4 -123 0
5 6 -123 0
7 8 -123 0
9 10 -123 0
11 12 -123 0
13 14 -123 0
15 16 -123 0
17 18 -123 0
19 20 -123 0
21 22 -123 0
23 24 -123 0
25 26 -123 0
27 28 -123 0
29 30 -123 0
31 32 -123 0
33 43 53 63 73 83 93 103 113 -124 0
34 44 54 64 74 84 94 104 114 -124 0
35 45 55 65 75 85 95 105 115 -124 0
36 46 56 66 76 86 96 106 116 -124 0
37 47 57 67 77 87 97 107 117 -124 0
38 48 58 68 78 88 98 108 118 -124 0
39 49 59 69 79 89 99 109 119 -124 0
40 50 60 70 80 90 100 110 120 -124 0
41 51 61 71 81 91 101 111 121 -124 0
42 52 62 72 82 92 102 112 122 -124 0
-33 -34 -124 0
-33 -35 -124 0
-33 -36 -124 0
-33 -37 -124 0
-33 -38 -124 0
-33 -39 -124 0
-33 -40 -124 0
-33 -41 -124 0
-33 -42 -124 0
-34 -35 -124 0
-34 -36 -124 0
-34 -37 -124 0
-34 -38 -124 0
-34 -39 -124 0
-34 -40 -124 0
-34 -41 -124 0
-34 -42 -124 0
-35 -36 -124 0
-35 -37 -124 0
-35 -38 -124 0
-35 -39 -124 0
-35 -40 -124 0
-35 -41 -124 0
-35 -42 -124 0
-36 -37 -124 0
-36 -38 -124 0
-36 -39 -124 0
-36 -40 -124 0
-36 -41 -124 0
-36 -42 -124 0
-37 -38 -124 0
-37 -39 -124 0
-37 -40 -124 0
-37 -41 -124 0
-37 -42 -124 0
-38 -39 -124 0
-38 -40 -124 0
-38 -41 -124 0
-38 -42 -124 0
-39 -40 -124 0
-39 -41 -124 0
-39 -42 -124 0
-40 -41 -124 0
-40 -42 -124 0
-41 -42 -124 0
-43 -44 -124 0
-43 -45 -124 0
-43 -46 -124 0
-43 -47 -124 0
-43 -48 -124 0
-43 -49 -124 0
-43 -50 -124 0
-43 -51 -124 0
-43 -52 -124 0
-44 -45 -124 0
-44 -46 -124 0
-44 -47 -124 0
-44 -48 -124 0
-44 -49 -124 0
-44 -50 -124 0
-44 -51 -124 0
-44 -52 -124 0
-45 -46 -124 0
-45 -47 -124 0
-45 -48 -124 0
-45 -49 -124 0
-45 -50 -124 0
-45 -51 -124 0
-45 -52 -124 0
-46 -47 -124 0
-46 -48 -124 0
-46 -49 -124 0
-46 -50 -124 0
-46 -51 -124 0
-46 -52 -124 0
-47 -48 -124 0
-47 -49 -124 0
-47 -50 -124 0
-47 -51 -124 0
-47 -52 -124 0
-48 -49 -124 0
-48 -50 -124 0
-48 -51 -124 0
-48 -52 -124 0
-49 -50 -124 0
-49 -51 -124 0
-49 -52 -124 0
-50 -51 -124 0
-50 -52 -124 0
-51 -52 -124 0
-53 -54 -124 0
-53 -55 -124 0
-53 -56 -124 0
-53 -57 -124 0
-53 -58 -124 0
-53 -59 -124 0
-53 -60 -124 0
-53 -61 -124 0
-53 -62 -124 0
-54 -55 -124 0
-54 -56 -124 0
-54 -57 -124 0
-54 -58 -124 0
-54 -59 -124 0
-54 -60 -124 0
-54 -61 -124 0
-54 -62 -124 0
-55 -56 -124 0
-55 -57 -124 0
-55 -58 -124 0
-55 -59 -124 0
-55 -60 -124 0
-55 -61 -124 0
-55 -62 -124 0
-56 -57 -124 0
-56 -58 -124 0
-56 -59 -124 0
-56 -60 -124 0
-56 -61 -124 0
-56 -62 -124 0
-57 -58 -124 0
-57 -59 -124 0
-57 -60 -124 0
-57 -61 -124 0
-57 -62 -124 0
-58 -59 -124 0
-58 -60 -124 0
-58 -61 -124 0
-58 -62 -124 0
-59 -60 -124 0
-59 -61 -124 0
-59 -62 -124 0
-60 -61 -124 0
-60 -62 -124 0
-61 -62 -124 0
-63 -64 -124 0
-63 -65 -124 0
-63 -66 -124 0
-63 -67 -124 0
-63 -68 -124 0
-63 -69 -124 0
-63 -70 -124 0
-63 -71 -124 0
-63 -72 -124 0
-64 -65 -124 0
-64 -66 -124 0
-64 -67 -124 0
-64 -68 -124 0
-64 -69 -124 0
-64 -70 -124 0
-64 -71 -124 0
-64 -72 -124 0
-65 -66 -124 0
-65 -67 -124 0
-65 -68 -124 0
-65 -69 -124 0
-65 -70 -124 0
-65 -71 -124 0
-65 -72 -124 0
-66 -67 -124 0
-66 -68 -124 0
-66 -69 -124 0
-66 -70 -124 0
-66 -71 -124 0
-66 -72 -124 0
-67 -68 -124 0
-67 -69 -124 0
-67 -70 -124 0
-67 -71 -124 0
-67 -72 -124 0
-68 -69 -124 0
-68 -70 -124 0
-68 -71 -124 0
-68 -72 -124 0
-69 -70 -124 0
-69 -71 -124 0
-69 -72 -124 0
-70 -71 -124 0
-70 -72 -124 0
-71 -72 -124 0
-73 -74 -124 0
-73 -75 -124 0
-73 -76 -124 0
-73 -77 -124 0
-73 -78 -124 0
-73 -79 -124 0
-73 -80 -124 0
-73 -81 -124 0
-73 -82 -124 0
-74 -75 -124 0
-74 -76 -124 0
-74 -77 -124 0
-74 -78 -124 0
-74 -79 -124 0
-74 -80 -124 0
-74 -81 -124 0
-74 -82 -124 0
-75 -76 -124 0
-75 -77 -124 0
-75 -78 -124 0
-75 -79 -124 0
-75 -80 -124 0
-75 -81 -124 0
-75 -82 -124 0
-76 -77 -124 0
-76 -78 -124 0
-76 -79 -124 0
-76 -80 -124 0
-76 -81 -124 0
-76 -82 -124 0
-77 -78 -124 0
-77 -79 -124 0
-77 -80 -124 0
-77 -81 -124 0
-77 -82 -124 0
-78 -79 -124 0
-78 -80 -124 0
-78 -81 -124 0
-78 -82 -124 0
-79 -80 -124 0
-79 -81 -124 0
-79 -82 -124 0
-80 -81 -124 0
-80 -82 -124 0
-81 -82 -124 0
-83 -84 -124 0
-83 -85 -124 0
-83 -86 -124 0
-83 -87 -124 0
-83 -88 -124 0
-83 -89 -124 0
-83 -90 -124 0
-83 -91 -124 0
-83 -92 -124 0
-84 -85 -124 0
-84 -86 -124 0
-84 -87 -124 0
-84 -88 -124 0
-84 -89 -124 0
-84 -90 -124 0
-84 -91 -124 0
-84 -92 -124 0
-85 -86 -124 0
-85 -87 -124 0
-85 -88 -124 0
-85 -89 -124 0
-85 -90 -124 0
-85 -91 -124 0
-85 -92 -124 0
-86 -87 -124 0
-86 -88 -124 0
-86 -89 -124 0
-86 -90 -124 0
-86 -91 -124 0
-86 -92 -124 0
-87 -88 -124 0
-87 -89 -124 0
-87 -90 -124 0
-87 -91 -124 0
-87 -92 -124 0
-88 -89 -124 0
-88 -90 -124 0
-88 -91 -124 0
-88 -92 -124 0
-89 -90 -124 0
-89 -91 -124 0
-89 -92 -124 0
-90 -91 -124 0
-90 -92 -124 0
-91 -92 -124 0
-93 -94 -124 0
-93 -95 -124 0
-93 -96 -124 0
-93 -97 -124 0
-93 -98 -124 0
-93 -99 -124 0
-93 -100 -124 0
-93 -101 -124 0
-93 -102 -124 0
-94 -95 -124 0
-94 -96 -124 0
-94 -97 -124 0
-94 -98 -124 0
-94 -99 -124 0
-94 -100 -124 0
-94 -101 -124 0
-94 -102 -124 0
-95 -96 -124 0
-95 -97 -124 0
-95 -98 -124 0
-95 -99 -124 0
-95 -100 -124 0
-95 -101 -124 0
-95 -102 -124 0
-96 -97 -124 0
-96 -98 -124 0
-96 -99 -124 0
-96 -100 -124 0
-96 -101 -124 0
-96 -102 -124 0
-97 -98 -124 0
-97 -99 -124 0
-97 -100 -124 0
-97 -101 -124 0
-97 -102 -124 0
-98 -99 -124 0
-98 -100 -124 0
-98 -101 -124 0
-98 -102 -124 0
-99 -100 -124 0
-99 -101 -124 0
-99 -102 -124 0
-100 -101 -124 0
-100 -102 -124 0
-101 -102 -124 0
-103 -104 -124 0
-103 -105 -124 0
-103 -106 -124 0
-103 -107 -124 0
-103 -108 -124 0
-103 -109 -124 0
-103 -110 -124 0
-103 -111 -124 0
-103 -112 -124 0
-104 -105 -124 0
-104 -106 -124 0
-104 -107 -124 0
-104 -108 -124 0
-104 -109 -124 0
-104 -110 -124 0
-104 -111 -124 0
-104 -112 -124 0
-105 -106 -124 0
-105 -107 -124 0
-105 -108 -124 0
-105 -109 -124 0
-105 -110 -124 0
-105 -111 -124 0
-105 -112 -124 0
-106 -107 -124 0
-106 -108 -124 0
-106 -109 -124 0
-106 -110 -124 0
-106 -111 -124 0
-106 -112 -124 0
-107 -108 -124 0
-107 -109 -124 0
-107 -110 -124 0
-107 -111 -124 0
-107 -112 -124 0
-108 -109 -124 0
-108 -110 -124 0
-108 -111 -124 0
-108 -112 -124 0
-109 -110 -124 0
-109 -111 -124 0
-109 -112 -124 0
-110 -111 -124 0
-110 -112 -124 0
-111 -112 -124 0
-113 -114 -124 0
-113 -115 -124 0
-113 -116 -124 0
-113 -117 -124 0
-113 -118 -124 0
-113 -119 -124 0
-113 -120 -124 0
-113 -121 -124 0
-113 -122 -124 0
-114 -115 -124 0
-114 -116 -124 0
-114 -117 -124 0
-114 -118 -124 0
-114 -119 -124 0
-114 -120 -124 0
-114 -121 -124 0
-114 -122 -124 0
-115 -116 -124 0
-115 -117 -124 0
-115 -118 -124 0
-115 -119 -124 0
-115 -120 -124 0
-115 -121 -124 0
-115 -122 -124 0
-116 -117 -124 0
-116 -118 -124 0
-116 -119 -124 0
-116 -120 -124 0
-116 -121 -124 0
-116 -122 -124 0
-117 -118 -124 0
-117 -119 -124 0
-117 -120 -124 0
-117 -121 -124 0
-117 -122 -124 0
-118 -119 -124 0
-118 -120 -124 0
-118 -121 -124 0
-118 -122 -124 0
-119 -120 -124 0
-119 -121 -124 0
-119 -122 -124 0
-120 -121 -124 0
-120 -122 -124 0
-121 -122 -124 0
123 124 0
